65
1 0 1
2 0 1
3 1 1
4 2 1
5 0 1
5 2 1
5 4 1
6 0 1
6 4 1
6 5 1
7 0 1
7 2 1
7 3 1
8 0 1
8 1 1
8 5 1
9 0 1
9 5 1
9 7 1
9 8 1
10 2 1
10 4 1
11 0 1
11 3 1
11 4 1
11 6 1
11 7 1
12 0 1
12 3 1
12 5 1
12 7 1
12 8 1
12 10 1
12 11 1
13 1 1
13 2 1
13 4 1
13 5 1
13 7 1
13 8 1
13 9 1
13 10 1
14 1 1
14 3 1
14 9 1
14 12 1
15 0 1
15 2 1
15 3 1
15 4 1
15 5 1
15 6 1
15 7 1
15 8 1
15 10 1
15 13 1
15 14 1
16 0 1
16 4 1
16 5 1
16 7 1
16 8 1
16 9 1
17 1 1
17 2 1
17 3 1
17 4 1
17 7 1
17 9 1
17 12 1
17 13 1
17 14 1
17 16 1
18 0 1
18 1 1
18 5 1
18 8 1
18 10 1
18 11 1
18 14 1
18 16 1
18 17 1
19 0 1
19 4 1
19 5 1
19 7 1
19 8 1
19 9 1
19 10 1
19 13 1
19 14 1
19 15 1
19 16 1
20 1 1
20 4 1
20 8 1
20 10 1
20 11 1
20 12 1
20 13 1
20 14 1
20 15 1
21 0 1
21 3 1
21 5 1
21 7 1
21 10 1
21 11 1
21 12 1
21 14 1
21 16 1
21 17 1
21 18 1
21 19 1
21 20 1
22 1 1
22 3 1
22 4 1
22 5 1
22 8 1
22 9 1
22 11 1
22 13 1
22 15 1
22 16 1
22 17 1
22 19 1
22 20 1
23 0 1
23 2 1
23 3 1
23 4 1
23 6 1
23 7 1
23 9 1
23 10 1
23 11 1
23 15 1
23 17 1
23 18 1
23 19 1
23 20 1
23 21 1
23 22 1
24 1 1
24 3 1
24 6 1
24 7 1
24 8 1
24 9 1
24 10 1
24 11 1
24 14 1
24 15 1
24 17 1
24 20 1
24 22 1
25 3 1
25 4 1
25 6 1
25 7 1
25 11 1
25 12 1
25 13 1
25 14 1
25 16 1
25 17 1
25 18 1
25 20 1
25 24 1
26 0 1
26 1 1
26 3 1
26 4 1
26 5 1
26 12 1
26 16 1
26 21 1
26 22 1
26 23 1
26 24 1
27 0 1
27 1 1
27 2 1
27 5 1
27 6 1
27 7 1
27 8 1
27 10 1
27 11 1
27 12 1
27 17 1
27 18 1
27 19 1
27 23 1
27 24 1
27 25 1
28 1 1
28 2 1
28 3 1
28 7 1
28 8 1
28 9 1
28 13 1
28 14 1
28 17 1
28 18 1
28 19 1
28 20 1
28 22 1
28 23 1
28 24 1
28 25 1
28 26 1
29 2 1
29 4 1
29 6 1
29 7 1
29 10 1
29 11 1
29 12 1
29 14 1
29 16 1
29 17 1
29 18 1
29 19 1
29 20 1
29 21 1
29 24 1
29 25 1
29 27 1
30 0 1
30 1 1
30 2 1
30 5 1
30 6 1
30 10 1
30 12 1
30 13 1
30 17 1
30 19 1
30 23 1
30 24 1
30 25 1
30 27 1
30 28 1
31 1 1
31 5 1
31 10 1
31 11 1
31 12 1
31 13 1
31 14 1
31 15 1
31 16 1
31 17 1
31 19 1
31 21 1
31 27 1
31 28 1
32 0 1
32 1 1
32 5 1
32 6 1
32 11 1
32 12 1
32 13 1
32 15 1
32 16 1
32 18 1
32 22 1
32 23 1
32 26 1
32 29 1
33 0 1
33 1 1
33 2 1
33 5 1
33 8 1
33 9 1
33 11 1
33 12 1
33 15 1
33 19 1
33 23 1
33 24 1
33 25 1
33 28 1
33 29 1
33 30 1
33 31 1
34 5 1
34 6 1
34 10 1
34 13 1
34 14 1
34 18 1
34 19 1
34 20 1
34 23 1
34 28 1
34 33 1
35 0 1
35 3 1
35 4 1
35 7 1
35 8 1
35 17 1
35 21 1
35 22 1
35 24 1
35 26 1
36 0 1
36 1 1
36 6 1
36 8 1
36 10 1
36 12 1
36 15 1
36 16 1
36 18 1
36 23 1
36 24 1
36 28 1
36 29 1
36 30 1
36 33 1
36 35 1
37 0 1
37 3 1
37 7 1
37 8 1
37 12 1
37 13 1
37 14 1
37 18 1
37 21 1
37 23 1
37 24 1
37 26 1
37 27 1
37 28 1
37 29 1
37 30 1
37 31 1
37 32 1
37 33 1
37 35 1
38 1 1
38 4 1
38 9 1
38 10 1
38 11 1
38 12 1
38 15 1
38 16 1
38 17 1
38 20 1
38 21 1
38 23 1
38 24 1
38 27 1
38 33 1
39 2 1
39 4 1
39 5 1
39 6 1
39 9 1
39 10 1
39 18 1
39 21 1
39 28 1
39 33 1
39 35 1
39 36 1
39 37 1
39 38 1
40 0 1
40 1 1
40 2 1
40 3 1
40 4 1
40 7 1
40 10 1
40 13 1
40 14 1
40 16 1
40 17 1
40 18 1
40 22 1
40 23 1
40 25 1
40 26 1
40 27 1
40 30 1
40 31 1
40 33 1
40 35 1
40 36 1
40 37 1
40 39 1
41 0 1
41 1 1
41 3 1
41 6 1
41 7 1
41 11 1
41 13 1
41 14 1
41 17 1
41 18 1
41 20 1
41 21 1
41 24 1
41 25 1
41 27 1
41 28 1
41 29 1
41 31 1
41 36 1
41 39 1
42 0 1
42 1 1
42 2 1
42 3 1
42 5 1
42 6 1
42 7 1
42 10 1
42 13 1
42 14 1
42 15 1
42 19 1
42 22 1
42 23 1
42 24 1
42 27 1
42 29 1
42 36 1
42 37 1
42 38 1
42 39 1
42 41 1
43 0 1
43 1 1
43 2 1
43 3 1
43 6 1
43 7 1
43 8 1
43 9 1
43 12 1
43 14 1
43 15 1
43 16 1
43 17 1
43 18 1
43 20 1
43 21 1
43 25 1
43 27 1
43 28 1
43 29 1
43 31 1
43 32 1
43 33 1
43 34 1
43 36 1
43 39 1
43 40 1
44 1 1
44 2 1
44 4 1
44 8 1
44 9 1
44 13 1
44 14 1
44 16 1
44 19 1
44 20 1
44 22 1
44 23 1
44 27 1
44 31 1
44 32 1
44 33 1
44 34 1
44 35 1
44 41 1
44 42 1
45 2 1
45 4 1
45 5 1
45 7 1
45 8 1
45 9 1
45 10 1
45 12 1
45 13 1
45 14 1
45 15 1
45 16 1
45 21 1
45 23 1
45 27 1
45 30 1
45 35 1
45 36 1
45 40 1
45 41 1
45 42 1
45 43 1
45 44 1
46 2 1
46 4 1
46 6 1
46 8 1
46 9 1
46 10 1
46 11 1
46 12 1
46 13 1
46 16 1
46 17 1
46 19 1
46 22 1
46 23 1
46 24 1
46 25 1
46 26 1
46 29 1
46 31 1
46 33 1
46 34 1
46 35 1
46 36 1
46 39 1
46 40 1
46 41 1
46 44 1
46 45 1
47 1 1
47 2 1
47 4 1
47 6 1
47 7 1
47 9 1
47 11 1
47 13 1
47 14 1
47 18 1
47 19 1
47 20 1
47 22 1
47 23 1
47 25 1
47 29 1
47 31 1
47 33 1
47 34 1
47 36 1
47 37 1
47 40 1
47 41 1
47 43 1
47 45 1
47 46 1
48 0 1
48 2 1
48 4 1
48 5 1
48 7 1
48 12 1
48 13 1
48 14 1
48 16 1
48 18 1
48 19 1
48 24 1
48 25 1
48 26 1
48 29 1
48 32 1
48 35 1
48 37 1
48 39 1
48 40 1
48 42 1
48 43 1
48 45 1
49 0 1
49 1 1
49 2 1
49 3 1
49 4 1
49 5 1
49 6 1
49 7 1
49 8 1
49 9 1
49 14 1
49 15 1
49 17 1
49 18 1
49 19 1
49 24 1
49 28 1
49 29 1
49 30 1
49 37 1
49 38 1
49 41 1
49 44 1
49 46 1
49 47 1
50 5 1
50 7 1
50 10 1
50 12 1
50 15 1
50 16 1
50 17 1
50 19 1
50 20 1
50 24 1
50 25 1
50 26 1
50 27 1
50 28 1
50 29 1
50 30 1
50 31 1
50 35 1
50 37 1
50 38 1
50 39 1
50 40 1
50 41 1
50 42 1
50 43 1
50 44 1
50 45 1
50 46 1
51 0 1
51 1 1
51 2 1
51 3 1
51 4 1
51 6 1
51 7 1
51 10 1
51 12 1
51 13 1
51 16 1
51 20 1
51 23 1
51 24 1
51 25 1
51 28 1
51 31 1
51 32 1
51 33 1
51 34 1
51 35 1
51 38 1
51 44 1
51 46 1
51 50 1
52 2 1
52 3 1
52 4 1
52 6 1
52 8 1
52 9 1
52 11 1
52 12 1
52 13 1
52 17 1
52 18 1
52 20 1
52 21 1
52 23 1
52 24 1
52 28 1
52 30 1
52 31 1
52 33 1
52 34 1
52 37 1
52 39 1
52 43 1
52 44 1
52 46 1
52 47 1
52 49 1
52 50 1
53 0 1
53 1 1
53 3 1
53 6 1
53 7 1
53 8 1
53 12 1
53 17 1
53 18 1
53 19 1
53 20 1
53 21 1
53 23 1
53 24 1
53 27 1
53 28 1
53 29 1
53 30 1
53 31 1
53 32 1
53 34 1
53 41 1
53 42 1
53 44 1
53 46 1
53 48 1
53 51 1
53 52 1
54 0 1
54 4 1
54 6 1
54 8 1
54 9 1
54 13 1
54 15 1
54 17 1
54 21 1
54 23 1
54 26 1
54 27 1
54 28 1
54 29 1
54 30 1
54 31 1
54 34 1
54 37 1
54 41 1
54 42 1
54 43 1
54 48 1
54 52 1
54 53 1
55 6 1
55 8 1
55 9 1
55 12 1
55 13 1
55 15 1
55 16 1
55 17 1
55 18 1
55 21 1
55 23 1
55 24 1
55 26 1
55 27 1
55 30 1
55 31 1
55 32 1
55 33 1
55 37 1
55 38 1
55 39 1
55 40 1
55 46 1
55 48 1
55 49 1
55 50 1
55 54 1
56 1 1
56 2 1
56 3 1
56 6 1
56 10 1
56 11 1
56 13 1
56 16 1
56 20 1
56 22 1
56 24 1
56 26 1
56 28 1
56 30 1
56 32 1
56 33 1
56 34 1
56 35 1
56 36 1
56 37 1
56 38 1
56 39 1
56 40 1
56 42 1
56 45 1
56 47 1
56 48 1
56 51 1
56 52 1
56 53 1
56 54 1
56 55 1
57 0 1
57 2 1
57 4 1
57 5 1
57 9 1
57 10 1
57 13 1
57 14 1
57 16 1
57 19 1
57 20 1
57 22 1
57 24 1
57 26 1
57 29 1
57 30 1
57 31 1
57 39 1
57 41 1
57 49 1
57 51 1
57 52 1
57 53 1
58 0 1
58 3 1
58 5 1
58 9 1
58 12 1
58 16 1
58 17 1
58 19 1
58 20 1
58 21 1
58 23 1
58 26 1
58 27 1
58 29 1
58 32 1
58 33 1
58 34 1
58 35 1
58 37 1
58 38 1
58 40 1
58 41 1
58 42 1
58 47 1
58 49 1
58 50 1
58 51 1
58 53 1
58 55 1
58 57 1
59 1 1
59 2 1
59 4 1
59 7 1
59 8 1
59 12 1
59 13 1
59 15 1
59 16 1
59 17 1
59 18 1
59 25 1
59 27 1
59 28 1
59 29 1
59 30 1
59 31 1
59 32 1
59 33 1
59 34 1
59 35 1
59 36 1
59 37 1
59 39 1
59 40 1
59 43 1
59 44 1
59 46 1
59 47 1
59 48 1
59 49 1
59 51 1
59 56 1
59 58 1
60 1 1
60 2 1
60 3 1
60 7 1
60 10 1
60 12 1
60 14 1
60 18 1
60 19 1
60 20 1
60 22 1
60 25 1
60 30 1
60 32 1
60 33 1
60 36 1
60 37 1
60 39 1
60 42 1
60 43 1
60 44 1
60 45 1
60 47 1
60 50 1
60 51 1
60 53 1
60 54 1
60 55 1
60 58 1
60 59 1
61 2 1
61 4 1
61 7 1
61 8 1
61 9 1
61 10 1
61 11 1
61 12 1
61 13 1
61 15 1
61 16 1
61 17 1
61 19 1
61 21 1
61 30 1
61 32 1
61 35 1
61 36 1
61 37 1
61 38 1
61 40 1
61 41 1
61 50 1
61 55 1
61 56 1
61 59 1
61 60 1
62 0 1
62 2 1
62 7 1
62 9 1
62 11 1
62 13 1
62 14 1
62 15 1
62 18 1
62 19 1
62 20 1
62 22 1
62 25 1
62 26 1
62 27 1
62 29 1
62 32 1
62 34 1
62 36 1
62 38 1
62 39 1
62 43 1
62 45 1
62 47 1
62 49 1
62 53 1
62 55 1
62 56 1
62 57 1
62 59 1
62 61 1
63 0 1
63 2 1
63 3 1
63 4 1
63 6 1
63 8 1
63 10 1
63 12 1
63 14 1
63 16 1
63 20 1
63 21 1
63 22 1
63 23 1
63 24 1
63 25 1
63 26 1
63 29 1
63 30 1
63 31 1
63 33 1
63 34 1
63 37 1
63 38 1
63 41 1
63 44 1
63 46 1
63 48 1
63 49 1
63 50 1
63 51 1
63 53 1
63 56 1
63 57 1
63 58 1
63 59 1
63 60 1
63 61 1
64 0 1
64 2 1
64 4 1
64 7 1
64 10 1
64 11 1
64 15 1
64 16 1
64 18 1
64 19 1
64 22 1
64 24 1
64 29 1
64 30 1
64 40 1
64 43 1
64 44 1
64 47 1
64 50 1
64 51 1
64 53 1
64 54 1
64 55 1
64 56 1
64 58 1
